






































































































68 32 2 65 71 66 
70 56 41 38 52 3 
69 37 34 24 13 50 75 
46 67 35 20 15 6 36 
10 62 7 54 42 11 
48 0 39 61 44 26 63 
12 60 53 47 74 29 27 
22 28 58 9 51 43 
49 16 57 1 17 59 72 
76 45 23 5 8 73 21 
19 14 18 30 4 25 
40 31 64 55 33 
